NAME          ClpDefau  FREE
ROWS
 N  OBJROW
 L  ZMUNI1_PCT
 L  ZMUNI2_PCT
 L  ZMUNI3_PCT
 L  ZMUNI4_PCT
 L  ZMUNI5_PCT
 L  ZMUNI6_PCT
 L  ZMUNI7_PCT
 L  ZMUNI8_PCT
 L  ZMUNI9_PCT
COLUMNS
    QMUNI1 OBJROW 1.          
    QMUNI1 ZMUNI1_PCT 28020.9541  
    QMUNI1 ZMUNI2_PCT 1742.9351   
    QMUNI1 ZMUNI3_PCT 4161.2625   
    QMUNI1 ZMUNI4_PCT 3004.09793  
    QMUNI1 ZMUNI5_PCT  -12.0163   
    QMUNI1 ZMUNI6_PCT 200.2716    
    QMUNI1 ZMUNI7_PCT 1591.1102   
    QMUNI1 ZMUNI8_PCT 1268.5775   
    QMUNI1 ZMUNI9_PCT 501.2512    
    QMUNI2 OBJROW 1.          
    QMUNI2 ZMUNI1_PCT 1578.2356   
    QMUNI2 ZMUNI2_PCT 33061.5997  
    QMUNI2 ZMUNI3_PCT 2398.3002   
    QMUNI2 ZMUNI4_PCT 2556.18095  
    QMUNI2 ZMUNI5_PCT  -76.1986   
    QMUNI2 ZMUNI6_PCT  -32.5203   
    QMUNI2 ZMUNI7_PCT 599.6704    
    QMUNI2 ZMUNI8_PCT 828.1707    
    QMUNI2 ZMUNI9_PCT 713.3483    
    QMUNI3 OBJROW 1.          
    QMUNI3 ZMUNI1_PCT 4238.6055   
    QMUNI3 ZMUNI2_PCT 2688.2171   
    QMUNI3 ZMUNI3_PCT 29841.6138  
    QMUNI3 ZMUNI4_PCT 5117.53559  
    QMUNI3 ZMUNI5_PCT 364.6851    
    QMUNI3 ZMUNI6_PCT 493.2403    
    QMUNI3 ZMUNI7_PCT 1630.0202   
    QMUNI3 ZMUNI8_PCT 1496.6964   
    QMUNI3 ZMUNI9_PCT 784.8739    
    QMUNI4 OBJROW 1.          
    QMUNI4 ZMUNI1_PCT 3244.5908   
    QMUNI4 ZMUNI2_PCT 2944.8509   
    QMUNI4 ZMUNI3_PCT 5447.3877   
    QMUNI4 ZMUNI4_PCT 102836.67445
    QMUNI4 ZMUNI5_PCT  -3.7193    
    QMUNI4 ZMUNI6_PCT 122.1657    
    QMUNI4 ZMUNI7_PCT 1092.9108   
    QMUNI4 ZMUNI8_PCT 1033.2107   
    QMUNI4 ZMUNI9_PCT 496.6735    
    QMUNI5 OBJROW 1.          
    QMUNI5 ZMUNI1_PCT 246.8109    
    QMUNI5 ZMUNI2_PCT 140.8577    
    QMUNI5 ZMUNI3_PCT 213.8138    
    QMUNI5 ZMUNI4_PCT 178.7424    
    QMUNI5 ZMUNI5_PCT 33125.5913  
    QMUNI5 ZMUNI6_PCT 2709.2934   
    QMUNI5 ZMUNI7_PCT 386.4288    
    QMUNI5 ZMUNI8_PCT 260.7345    
    QMUNI5 ZMUNI9_PCT 197.4105    
    QMUNI6 OBJROW 1.          
    QMUNI6 ZMUNI1_PCT 436.0199    
    QMUNI6 ZMUNI2_PCT 253.0098    
    QMUNI6 ZMUNI3_PCT 361.4426    
    QMUNI6 ZMUNI4_PCT 294.89994   
    QMUNI6 ZMUNI5_PCT 3146.5531   
    QMUNI6 ZMUNI6_PCT 31649.3988  
    QMUNI6 ZMUNI7_PCT 615.5014    
    QMUNI6 ZMUNI8_PCT 325.5844    
    QMUNI6 ZMUNI9_PCT 171.0891    
    QMUNI7 OBJROW 1.          
    QMUNI7 ZMUNI1_PCT 1376.915    
    QMUNI7 ZMUNI2_PCT 756.4544    
    QMUNI7 ZMUNI3_PCT 1190.567    
    QMUNI7 ZMUNI4_PCT 884.95016   
    QMUNI7 ZMUNI5_PCT 444.2215    
    QMUNI7 ZMUNI6_PCT 629.3297    
    QMUNI7 ZMUNI7_PCT 28877.8305  
    QMUNI7 ZMUNI8_PCT 2260.971    
    QMUNI7 ZMUNI9_PCT 620.079     
    QMUNI8 OBJROW 1.          
    QMUNI8 ZMUNI1_PCT 1077.7473   
    QMUNI8 ZMUNI2_PCT 954.5326    
    QMUNI8 ZMUNI3_PCT 1112.9379   
    QMUNI8 ZMUNI4_PCT 863.07525   
    QMUNI8 ZMUNI5_PCT 258.3504    
    QMUNI8 ZMUNI6_PCT 343.5135    
    QMUNI8 ZMUNI7_PCT 2239.418    
    QMUNI8 ZMUNI8_PCT 27099.8001  
    QMUNI8 ZMUNI9_PCT 1150.5127   
    QMUNI9 OBJROW 1.          
    QMUNI9 ZMUNI1_PCT 1187.706    
    QMUNI9 ZMUNI2_PCT 1497.0779   
    QMUNI9 ZMUNI3_PCT 1294.136    
    QMUNI9 ZMUNI4_PCT 1118.46923  
    QMUNI9 ZMUNI5_PCT 879.097     
    QMUNI9 ZMUNI6_PCT 995.0638    
    QMUNI9 ZMUNI7_PCT 2090.0726   
    QMUNI9 ZMUNI8_PCT 2584.6481   
    QMUNI9 ZMUNI9_PCT 26725.0061  
RHS
    RHS ZMUNI1_PCT 0.4079085061
    RHS ZMUNI2_PCT 0.388337246 
    RHS ZMUNI3_PCT 0.0079071429
    RHS ZMUNI4_PCT  -0.36468317
    RHS ZMUNI5_PCT -0.085735729
    RHS ZMUNI6_PCT 0.0802049347
    RHS ZMUNI7_PCT  -0.20976879
    RHS ZMUNI8_PCT  -0.24895849
    RHS ZMUNI9_PCT 0.0058196466
BOUNDS
 LO BOUND QMUNI1 -0.001091389
 UP BOUND QMUNI1      1.1e+10
 LO BOUND QMUNI2 -0.000760289
 UP BOUND QMUNI2      1.1e+10
 LO BOUND QMUNI3 -0.000770077
 UP BOUND QMUNI3      1.1e+10
 LO BOUND QMUNI4 -0.000310598
 UP BOUND QMUNI4      1.1e+10
 LO BOUND QMUNI5 -0.000604314
 UP BOUND QMUNI5      1.1e+10
 LO BOUND QMUNI6 -0.00078501 
 UP BOUND QMUNI6      1.1e+10
 LO BOUND QMUNI7 -0.00036788 
 UP BOUND QMUNI7      1.1e+10
 LO BOUND QMUNI8 -0.000500505
 UP BOUND QMUNI8      1.1e+10
 LO BOUND QMUNI9 -0.000627587
 UP BOUND QMUNI9      1.1e+10
ENDATA
